RT is False
Default write of storage_offers_DA.csv just to have a file (but constraint should be inactive)
Reading model...
...model read.
creating competitive generators file...
...competitive generators recorded.
Loading data...
.. day-ahead data with real-time VRE data read.
Compiling instance...
...instance created.
Creating Offer Mitigation (model will solve as dispatch if TRUE)...
Solving...

Welcome to IBM(R) ILOG(R) CPLEX(R) Interactive Optimizer 12.9.0.0
  with Simplex, Mixed Integer & Barrier Optimizers
5725-A06 5725-A29 5724-Y48 5724-Y49 5724-Y54 5724-Y55 5655-Y21
Copyright IBM Corp. 1988, 2019.  All Rights Reserved.

Type 'help' for a list of available commands.
Type 'help' followed by a command name for more
information on commands.

CPLEX> Logfile 'cplex.log' closed.
Logfile 'C:\Users\Luke\Desktop\test919\logs\tmpt1p974s_.cplex.log' open.
CPLEX> New value for parallel optimization mode: -1
CPLEX> New value for emphasis for MIP optimization: 1
CPLEX> New value for mixed integer optimality gap tolerance: 0.01
CPLEX> New value for integrality tolerance: 1e-12
CPLEX> New value for deterministic time limit in ticks: 75000
CPLEX> Problem 'C:\Users\Luke\Desktop\test919\logs\tmpmynegwe3.pyomo.lp' read.
Read time = 0.05 sec. (3.05 ticks)
CPLEX> Problem name         : C:\Users\Luke\Desktop\test919\logs\tmpmynegwe3.pyomo.lp
Objective sense      : Minimize
Variables            :   26085  [Nneg: 1,  Box: 21620,  Free: 4464]
Objective nonzeros   :    2496
Linear constraints   :   27563  [Less: 14006,  Greater: 4416,  Equal: 9141]
  Nonzeros           :   90683
  RHS nonzeros       :   12271

Variables            : Min LB: -5000.000        Max UB: 1000000.       
Objective nonzeros   : Min   : 15.73158         Max   : 124.0997       
Linear constraints   :
  Nonzeros           : Min   : 0.8500000        Max   : 3000.000       
  RHS nonzeros       : Min   : 0.2250000        Max   : 5000.000       
CPLEX> CPXPARAM_Parallel                                -1
CPXPARAM_Emphasis_MIP                            1
CPXPARAM_DetTimeLimit                            75000
CPXPARAM_MIP_Tolerances_MIPGap                   0.01
CPXPARAM_MIP_Tolerances_Integrality              9.9999999999999998e-13
Parallel mode: opportunistic, using up to 12 threads for concurrent optimization.
Tried aggregator 1 time.
LP Presolve eliminated 21384 rows and 15495 columns.
Aggregator did 754 substitutions.
Reduced LP has 5425 rows, 9836 columns, and 32578 nonzeros.
Presolve time = 0.05 sec. (30.58 ticks)
Symmetry aggregator did 5659 additional substitutions.
Initializing dual steep norms . . .

Iteration log . . .
Iteration:     1   Dual objective     =             0.000000
Perturbation started.
Iteration:   101   Dual objective     =             0.000000
Iteration:   345   Dual objective     =            54.656626
Iteration:   546   Dual objective     =            64.819582
Iteration:   757   Dual objective     =            64.994623
Iteration:   948   Dual objective     =        246630.747436
Iteration:  1117   Dual objective     =        264902.154310
Removing perturbation.

Dual crossover.
  Dual:  Fixing 3 variables.
        2 DMoves:  Infeasibility  4.26325641e-14  Objective  2.67139530e+05
        0 DMoves:  Infeasibility  0.00000000e+00  Objective  2.67139530e+05
  Dual:  Pushed 0, exchanged 3.
  Primal:  Fixing 9 variables.
        8 PMoves:  Infeasibility  1.59457159e-09  Objective  2.67139530e+05
        0 PMoves:  Infeasibility  1.59457159e-09  Objective  2.67139530e+05
  Primal:  Pushed 9, exchanged 0.

Dual simplex solved model.


Dual simplex - Optimal:  Objective =  2.6713952950e+05
Solution time =    0.11 sec.  Iterations = 1395 (0)
Deterministic time = 78.98 ticks  (724.62 ticks/sec)

CPLEX> Solution written to file 'C:\Users\Luke\Desktop\test919\logs\tmpfjjza07y.cplex.sol'.
CPLEX> Exporting results... 
...storage offer mitigation file created
Converting model to MPEC...
...converted
NOTE: initial MIP solve with only storage competitive to get feasible solution
Solving...

Welcome to IBM(R) ILOG(R) CPLEX(R) Interactive Optimizer 12.9.0.0
  with Simplex, Mixed Integer & Barrier Optimizers
5725-A06 5725-A29 5724-Y48 5724-Y49 5724-Y54 5724-Y55 5655-Y21
Copyright IBM Corp. 1988, 2019.  All Rights Reserved.

Type 'help' for a list of available commands.
Type 'help' followed by a command name for more
information on commands.

CPLEX> Logfile 'cplex.log' closed.
Logfile 'C:\Users\Luke\Desktop\test919\logs\tmp1v9mbs7q.cplex.log' open.
CPLEX> New value for parallel optimization mode: -1
CPLEX> New value for emphasis for MIP optimization: 1
CPLEX> New value for mixed integer optimality gap tolerance: 0.01
CPLEX> New value for integrality tolerance: 1e-12
CPLEX> New value for deterministic time limit in ticks: 75000
CPLEX> Problem 'C:\Users\Luke\Desktop\test919\logs\tmpkkoxc5eq.pyomo.lp' read.
Read time = 0.20 sec. (13.88 ticks)
CPLEX> Problem name         : C:\Users\Luke\Desktop\test919\logs\tmpkkoxc5eq.pyomo.lp
Objective sense      : Maximize
Variables            :   53809  [Nneg: 1,  Box: 22004,  Free: 4464,
                                 Binary: 27340]
Objective nonzeros   :    9029
Linear constraints   :  123253  [Less: 41346,  Greater: 59096,  Equal: 22811]
  Nonzeros           :  293217
  RHS nonzeros       :   67491

Variables            : Min LB: -5000.000        Max UB: 1000000.       
Objective nonzeros   : Min   : 0.2250000        Max   : 2500.000       
Linear constraints   :
  Nonzeros           : Min   : 0.2250000        Max   : 1000000.       
  RHS nonzeros       : Min   : 0.2250000        Max   : 1000000.       
CPLEX> CPXPARAM_Parallel                                -1
CPXPARAM_Emphasis_MIP                            1
CPXPARAM_DetTimeLimit                            75000
CPXPARAM_MIP_Tolerances_MIPGap                   0.01
CPXPARAM_MIP_Tolerances_Integrality              9.9999999999999998e-13
Tried aggregator 4 times.
MIP Presolve eliminated 88677 rows and 18980 columns.
MIP Presolve added 3379 rows and 0 columns.
MIP Presolve modified 24797 coefficients.
Aggregator did 12999 substitutions.
Reduced MIP has 24956 rows, 21274 columns, and 71787 nonzeros.
Reduced MIP has 8415 binaries, 0 generals, 0 SOSs, and 0 indicators.
Presolve time = 0.27 sec. (192.71 ticks)
Probing fixed 416 vars, tightened 3937 bounds.
Probing time = 0.05 sec. (18.58 ticks)
Tried aggregator 2 times.
MIP Presolve eliminated 934 rows and 833 columns.
MIP Presolve modified 3035 coefficients.
Aggregator did 24 substitutions.
Reduced MIP has 23998 rows, 20417 columns, and 69009 nonzeros.
Reduced MIP has 7999 binaries, 0 generals, 0 SOSs, and 0 indicators.
Presolve time = 0.11 sec. (89.19 ticks)
Probing fixed 0 vars, tightened 225 bounds.
Probing time = 0.13 sec. (22.37 ticks)
Clique table members: 44883.
MIP emphasis: integer feasibility.
MIP search method: dynamic search.
Parallel mode: opportunistic, using up to 12 threads.
Root relaxation solution time = 0.47 sec. (648.86 ticks)

        Nodes                                         Cuts/
   Node  Left     Objective  IInf  Best Integer    Best Bound    ItCnt     Gap

      0     0      717.3287   152                    717.3287     5371         
      0     0      717.3287     6                    Cuts: 20     5379         
      0    12      283.4589     6                    685.2073     5436         
Elapsed time = 2.77 sec. (1635.92 ticks, tree = 0.02 MB, solutions = 0)
    219   108    infeasible                          608.1803     8695         
    415   213    -3376.3726    13                    608.1803    15443         
*   475   174      integral     0      608.1803      608.1803    13887    0.00%

Flow cuts applied:  11
Gomory fractional cuts applied:  7

Root node processing (before b&c):
  Real time             =    2.37 sec. (1606.28 ticks)
Parallel b&c, 12 threads:
  Real time             =    2.24 sec. (642.13 ticks)
  Sync time (average)   =    0.11 sec.
  Wait time (average)   =    0.00 sec.
                          ------------
Total (root+branch&cut) =    4.61 sec. (2248.42 ticks)

Solution pool: 1 solution saved.

MIP - Integer optimal solution:  Objective =  6.0818028489e+02
Solution time =    4.61 sec.  Iterations = 21274  Nodes = 480
Deterministic time = 2248.57 ticks  (487.86 ticks/sec)

CPLEX> Incumbent solution written to file 'C:\Users\Luke\Desktop\test919\logs\tmpl796yk3o.cplex.sol'.
CPLEX> NOTE: no warmstart specified for MIP iteration, default behavior is true
NOTE: resolving with all competitive generators using storage-only solution to warmstart
Solving...

Welcome to IBM(R) ILOG(R) CPLEX(R) Interactive Optimizer 12.9.0.0
  with Simplex, Mixed Integer & Barrier Optimizers
5725-A06 5725-A29 5724-Y48 5724-Y49 5724-Y54 5724-Y55 5655-Y21
Copyright IBM Corp. 1988, 2019.  All Rights Reserved.

Type 'help' for a list of available commands.
Type 'help' followed by a command name for more
information on commands.

CPLEX> Logfile 'cplex.log' closed.
Logfile 'C:\Users\Luke\Desktop\test919\logs\tmp1cyqd41e.cplex.log' open.
CPLEX> New value for parallel optimization mode: -1
CPLEX> New value for emphasis for MIP optimization: 1
CPLEX> New value for mixed integer optimality gap tolerance: 0.01
CPLEX> New value for integrality tolerance: 1e-12
CPLEX> New value for deterministic time limit in ticks: 75000
CPLEX> Problem 'C:\Users\Luke\Desktop\test919\logs\tmpnu6rgwj_.pyomo.lp' read.
Read time = 0.20 sec. (13.91 ticks)
CPLEX> MIP start file 'C:\Users\Luke\Desktop\test919\logs\tmpysylqjq3.cplex.mst' read.
CPLEX> Problem name         : C:\Users\Luke\Desktop\test919\logs\tmpnu6rgwj_.pyomo.lp
Objective sense      : Maximize
Variables            :   54529  [Nneg: 1,  Box: 22724,  Free: 4464,
                                 Binary: 27340]
Objective nonzeros   :    9725
Linear constraints   :  123253  [Less: 41346,  Greater: 59096,  Equal: 22811]
  Nonzeros           :  293217
  RHS nonzeros       :   67491

Variables            : Min LB: -5000.000        Max UB: 1000000.       
Objective nonzeros   : Min   : 0.2250000        Max   : 2500.000       
Linear constraints   :
  Nonzeros           : Min   : 0.2250000        Max   : 1000000.       
  RHS nonzeros       : Min   : 0.2250000        Max   : 1000000.       
CPLEX> CPXPARAM_Parallel                                -1
CPXPARAM_Emphasis_MIP                            1
CPXPARAM_DetTimeLimit                            75000
CPXPARAM_MIP_Tolerances_MIPGap                   0.01
CPXPARAM_MIP_Tolerances_Integrality              9.9999999999999998e-13
Warning:  No solution found from 1 MIP starts.
Retaining values of one MIP start for possible repair.
Tried aggregator 4 times.
MIP Presolve eliminated 88677 rows and 19700 columns.
MIP Presolve added 3379 rows and 0 columns.
MIP Presolve modified 24797 coefficients.
Aggregator did 12999 substitutions.
Reduced MIP has 24956 rows, 21274 columns, and 71787 nonzeros.
Reduced MIP has 8415 binaries, 0 generals, 0 SOSs, and 0 indicators.
Presolve time = 0.28 sec. (193.12 ticks)
Probing fixed 416 vars, tightened 3937 bounds.
Probing time = 0.05 sec. (18.58 ticks)
Tried aggregator 2 times.
MIP Presolve eliminated 934 rows and 833 columns.
MIP Presolve modified 3035 coefficients.
Aggregator did 24 substitutions.
Reduced MIP has 23998 rows, 20417 columns, and 69009 nonzeros.
Reduced MIP has 7999 binaries, 0 generals, 0 SOSs, and 0 indicators.
Presolve time = 0.11 sec. (89.19 ticks)
Probing fixed 0 vars, tightened 225 bounds.
Probing time = 0.13 sec. (22.37 ticks)
Clique table members: 44883.
MIP emphasis: integer feasibility.
MIP search method: dynamic search.
Parallel mode: opportunistic, using up to 12 threads.
Root relaxation solution time = 0.48 sec. (686.41 ticks)

        Nodes                                         Cuts/
   Node  Left     Objective  IInf  Best Integer    Best Bound    ItCnt     Gap

      0     0    46843.7228   150                  46843.7228     5946         
      0     0    46767.2177    28                    Cuts: 49     5986         
      0     0    46675.1693    25                    Cuts: 22     6006         
      0     0    46673.7468    26                     Cuts: 4     6009         
Repair heuristic found nothing.
      0    13    44357.3220    16                     Cuts: 2     6192         
Elapsed time = 3.03 sec. (1760.97 ticks, tree = 0.02 MB, solutions = 0)
    241   155    10060.3957    28                  45122.1075     7502         
    515   289   -39049.9448    19                  45122.1075     9128         
    739   432    infeasible                        45122.1075    12656         
    942   536  -288512.0776    28                  45122.1075    17695         
   1166   622    -7444.6992    22                  45122.1075    22244         
   1420   733    24939.3917    16                  45122.1075    26588         
   1643   893    infeasible                        45122.1075    30558         
   1855  1065    12790.2247    20                  45122.1075    40217         
   2073  1050    20169.2116    22                  45122.1075    39267         
   3006  1363   -17018.2812    16                  45122.1075    59400         
Elapsed time = 15.41 sec. (4868.03 ticks, tree = 42.71 MB, solutions = 0)
   3995  2045    18625.8033    16                  45122.1075    95234         
*  4266  1969      integral     0    44060.3165    45122.1075    93245    2.41%
   4692  2144    infeasible          44060.3165    45122.1075    99910    2.41%

Cover cuts applied:  17
Implied bound cuts applied:  1
Flow cuts applied:  45
Mixed integer rounding cuts applied:  3
Gomory fractional cuts applied:  5

Root node processing (before b&c):
  Real time             =    2.58 sec. (1715.44 ticks)
Parallel b&c, 12 threads:
  Real time             =   18.95 sec. (5415.36 ticks)
  Sync time (average)   =    0.81 sec.
  Wait time (average)   =    0.00 sec.
                          ------------
Total (root+branch&cut) =   21.53 sec. (7130.79 ticks)

Solution pool: 1 solution saved.

MIP - Integer optimal, tolerance (0.01/1e-06):  Objective =  4.4060316548e+04
Current MIP best bound =  4.4452542100e+04 (gap = 392.226, 0.89%)
Solution time =   21.53 sec.  Iterations = 130094  Nodes = 4790 (19)
Deterministic time = 7130.95 ticks  (331.19 ticks/sec)

CPLEX> Incumbent solution written to file 'C:\Users\Luke\Desktop\test919\logs\tmpdji1bjh8.cplex.sol'.
CPLEX> Exporting results... 
